p cnf 3113 905
-2780 2939 0
-2939 2780 0
-2941 -2942 0
-2782 2941 0
-2783 2942 0
-2941 2782 0
-2942 2783 0
-2944 -2945 0
-2785 2944 0
-2786 2945 0
-2944 2785 0
-2945 2786 0
-2947 -2948 0
-2947 -2949 0
-2948 -2949 0
-2788 2947 0
-2789 2948 0
-2790 2949 0
-2947 2788 0
-2948 2789 0
-2949 2790 0
-2951 -2952 0
-2792 2951 0
-2793 2952 0
-2951 2792 0
-2952 2793 0
-2954 -2955 0
-2954 -2956 0
-2955 -2956 0
-2795 2954 0
-2796 2955 0
-2797 2956 0
-2954 2795 0
-2955 2796 0
-2956 2797 0
-2958 -2959 0
-2799 2958 0
-2800 2959 0
-2958 2799 0
-2959 2800 0
-2961 -2962 0
-2961 -2963 0
-2962 -2963 0
-2802 2961 0
-2803 2962 0
-2804 2963 0
-2961 2802 0
-2962 2803 0
-2963 2804 0
-2965 -2966 0
-2806 2965 0
-2807 2966 0
-2965 2806 0
-2966 2807 0
-2968 -2969 0
-2968 -2970 0
-2969 -2970 0
-2809 2968 0
-2810 2969 0
-2811 2970 0
-2968 2809 0
-2969 2810 0
-2970 2811 0
-2972 -2973 0
-2813 2972 0
-2814 2973 0
-2972 2813 0
-2973 2814 0
-2975 -2976 0
-2975 -2977 0
-2976 -2977 0
-2816 2975 0
-2817 2976 0
-2818 2977 0
-2975 2816 0
-2976 2817 0
-2977 2818 0
-2979 -2980 0
-2820 2979 0
-2821 2980 0
-2979 2820 0
-2980 2821 0
-2982 -2983 0
-2982 -2984 0
-2983 -2984 0
-2823 2982 0
-2824 2983 0
-2825 2984 0
-2982 2823 0
-2983 2824 0
-2984 2825 0
-2986 -2987 0
-2827 2986 0
-2828 2987 0
-2986 2827 0
-2987 2828 0
-2989 -2990 0
-2989 -2991 0
-2990 -2991 0
-2830 2989 0
-2831 2990 0
-2832 2991 0
-2989 2830 0
-2990 2831 0
-2991 2832 0
-2993 -2994 0
-2834 2993 0
-2835 2994 0
-2993 2834 0
-2994 2835 0
-2996 -2997 0
-2996 -2998 0
-2997 -2998 0
-2837 2996 0
-2838 2997 0
-2839 2998 0
-2996 2837 0
-2997 2838 0
-2998 2839 0
-3000 -3001 0
-2841 3000 0
-2842 3001 0
-3000 2841 0
-3001 2842 0
-3003 -3004 0
-3003 -3005 0
-3004 -3005 0
-2844 3003 0
-2845 3004 0
-2846 3005 0
-3003 2844 0
-3004 2845 0
-3005 2846 0
-3007 -3008 0
-2848 3007 0
-2849 3008 0
-3007 2848 0
-3008 2849 0
-3010 -3011 0
-3010 -3012 0
-3011 -3012 0
-2851 3010 0
-2852 3011 0
-2853 3012 0
-2854 3011 0
-3010 2851 0
-3011 2852 2854 0
-3012 2853 0
-3014 3020 3021 3022 3023 3024 0
-3020 -3021 0
-3020 -3022 0
-3020 -3023 0
-3020 -3024 0
-3021 -3022 0
-3021 -3023 0
-3021 -3024 0
-3022 -3023 0
-3022 -3024 0
-3023 -3024 0
-3014 3025 3026 3027 3028 3029 3030 3031 0
-3025 -3026 0
-3025 -3027 0
-3025 -3028 0
-3025 -3029 0
-3025 -3030 0
-3025 -3031 0
-3026 -3027 0
-3026 -3028 0
-3026 -3029 0
-3026 -3030 0
-3026 -3031 0
-3027 -3028 0
-3027 -3029 0
-3027 -3030 0
-3027 -3031 0
-3028 -3029 0
-3028 -3030 0
-3028 -3031 0
-3029 -3030 0
-3029 -3031 0
-3030 -3031 0
-3014 3032 3033 3034 3035 3036 3037 3038 3039 0
-3032 -3033 0
-3032 -3034 0
-3032 -3035 0
-3032 -3036 0
-3032 -3037 0
-3032 -3038 0
-3032 -3039 0
-3033 -3034 0
-3033 -3035 0
-3033 -3036 0
-3033 -3037 0
-3033 -3038 0
-3033 -3039 0
-3034 -3035 0
-3034 -3036 0
-3034 -3037 0
-3034 -3038 0
-3034 -3039 0
-3035 -3036 0
-3035 -3037 0
-3035 -3038 0
-3035 -3039 0
-3036 -3037 0
-3036 -3038 0
-3036 -3039 0
-3037 -3038 0
-3037 -3039 0
-3038 -3039 0
-3014 3018 0
-3014 3019 0
-3014 3017 0
-3014 -3015 0
-3023 -3025 -3017 2899 0
-3023 -3030 -3017 2907 0
-3023 -3026 -3017 2886 0
-3021 -3029 -3017 2887 0
-3023 -3031 -3017 2889 0
-3020 -3026 -3017 2890 0
-3022 -3026 -3017 2902 0
-3024 -3029 -3017 2918 0
-3022 -3031 -3017 2892 0
-3023 -3028 -3017 2893 0
-3022 -3029 -3017 2911 0
-3020 -3029 -3017 2903 0
-3024 -3030 -3017 2895 0
-3024 -3026 -3017 2919 0
-3020 -3030 -3017 2920 0
-3023 -3027 -3017 2913 0
-3021 -3026 -3017 2914 0
-3024 -3025 -3017 2897 0
-3024 -3027 -3017 2915 0
-3021 -3031 -3017 2906 0
-3024 -3031 -3017 2898 0
-3023 -3029 -3017 2917 0
-3020 -3031 -3017 2922 0
-3021 -3027 -3017 2923 0
-3020 -3027 -3017 2924 0
-3036 -3018 2910 0
-3035 -3018 2884 0
-3037 -3018 2885 0
-3033 -3018 2904 0
-3032 -3018 2909 0
-3034 -3018 2901 0
-3038 -3018 2916 0
-3039 -3018 2891 0
-3020 -3019 2735 0
-3023 -3019 2723 0
-3021 -3019 2720 0
-3024 -3019 2742 0
-3022 -3019 2734 0
-3014 -3021 -3032 0
-3014 -3021 -3035 0
-3014 -3021 -3038 0
-3014 -3021 -3037 0
-3014 -3022 -3032 0
-3014 -3022 -3035 0
-3014 -3022 -3038 0
-3014 -3022 -3037 0
-3014 -3022 -3034 0
-3014 -3020 -3032 0
-3014 -3020 -3035 0
-3014 -3020 -3038 0
-3014 -3023 -3038 0
-3014 -3024 -3035 0
-3014 -3024 -3038 0
-3014 -3021 -3025 0
-3014 -3021 -3030 0
-3014 -3021 -3028 0
-3014 -3022 -3025 0
-3014 -3022 -3027 0
-3014 -3022 -3030 0
-3014 -3022 -3028 0
-3014 -3020 -3025 0
-3014 -3020 -3028 0
-3014 -3024 -3028 0
-2882 3014 0
-2881 3015 0
-3014 2882 0
-3015 2881 0
-3040 3044 0
-3041 3044 0
-3042 -3044 0
-3043 -3044 0
-2884 3045 -3014 3035 0
-2884 3045 3014 0
2884 -3045 -3014 3024 0
2884 -3045 3014 0
-2885 3046 -3014 3037 0
-2885 3046 3014 0
2885 -3046 -3014 3021 0
2885 -3046 3014 0
-2886 3047 -3014 -3023 3026 0
-2886 3047 -3014 3023 0
-2886 3047 3014 0
2886 -3047 -3014 -3023 3033 0
2886 -3047 -3014 3023 0
2886 -3047 3014 0
-2887 3048 -3014 -3021 3029 0
-2887 3048 -3014 3021 0
-2887 3048 3014 0
2887 -3048 -3014 -3021 3036 0
2887 -3048 -3014 3021 0
2887 -3048 3014 0
-2889 3049 -3014 -3023 3031 0
-2889 3049 -3014 3023 0
-2889 3049 3014 0
2889 -3049 -3014 -3023 3039 0
2889 -3049 -3014 3023 0
2889 -3049 3014 0
-2890 3050 -3014 -3020 3026 0
-2890 3050 -3014 3020 0
-2890 3050 3014 0
2890 -3050 -3014 -3020 3033 0
2890 -3050 -3014 3020 0
2890 -3050 3014 0
-2891 3051 -3014 3039 0
-2891 3051 3014 0
2891 -3051 0
-2892 3052 -3014 -3022 3031 0
-2892 3052 -3014 3022 0
-2892 3052 3014 0
2892 -3052 -3014 -3022 3039 0
2892 -3052 -3014 3022 0
2892 -3052 3014 0
-2716 3053 0
2716 -3053 -3014 3031 0
2716 -3053 3014 0
-2893 3054 -3014 -3023 3028 0
-2893 3054 -3014 3023 0
-2893 3054 3014 0
2893 -3054 -3014 -3023 3035 0
2893 -3054 -3014 3023 0
2893 -3054 3014 0
-2895 3055 -3014 -3024 3030 0
-2895 3055 -3014 3024 0
-2895 3055 3014 0
2895 -3055 -3014 -3024 3037 0
2895 -3055 -3014 3024 0
2895 -3055 3014 0
-2720 3056 -3014 3021 0
-2720 3056 3014 0
2720 -3056 -3014 3030 0
2720 -3056 3014 0
-2897 3057 -3014 -3024 3025 0
-2897 3057 -3014 3024 0
-2897 3057 3014 0
2897 -3057 -3014 -3024 3032 0
2897 -3057 -3014 3024 0
2897 -3057 3014 0
-2723 3058 -3014 3023 0
-2723 3058 3014 0
2723 -3058 0
-2898 3059 -3014 -3024 3031 0
-2898 3059 -3014 3024 0
-2898 3059 3014 0
2898 -3059 -3014 -3024 3039 0
2898 -3059 -3014 3024 0
2898 -3059 3014 0
-2899 3060 -3014 -3023 3025 0
-2899 3060 -3014 3023 0
-2899 3060 3014 0
2899 -3060 -3014 -3023 3032 0
2899 -3060 -3014 3023 0
2899 -3060 3014 0
-2901 3061 -3014 3034 0
-2901 3061 3014 0
2901 -3061 -3014 3022 0
2901 -3061 3014 0
-2727 3062 0
2727 -3062 -3014 3029 0
2727 -3062 3014 0
-2902 3063 -3014 -3022 3026 0
-2902 3063 -3014 3022 0
-2902 3063 3014 0
2902 -3063 -3014 -3022 3033 0
2902 -3063 -3014 3022 0
2902 -3063 3014 0
-2903 3064 -3014 -3020 3029 0
-2903 3064 -3014 3020 0
-2903 3064 3014 0
2903 -3064 -3014 -3020 3036 0
2903 -3064 -3014 3020 0
2903 -3064 3014 0
-2904 3065 -3014 3033 0
-2904 3065 3014 0
2904 -3065 0
-2906 3066 -3014 -3021 3031 0
-2906 3066 -3014 3021 0
-2906 3066 3014 0
2906 -3066 -3014 -3021 3039 0
2906 -3066 -3014 3021 0
2906 -3066 3014 0
-2907 3067 -3014 -3023 3030 0
-2907 3067 -3014 3023 0
-2907 3067 3014 0
2907 -3067 -3014 -3023 3037 0
2907 -3067 -3014 3023 0
2907 -3067 3014 0
-2909 3068 -3014 3032 0
-2909 3068 3014 0
2909 -3068 -3014 3020 0
2909 -3068 3014 0
-2734 3069 -3014 3022 0
-2734 3069 3014 0
2734 -3069 -3014 3027 0
2734 -3069 3014 0
-2910 3070 -3014 3036 0
-2910 3070 3014 0
2910 -3070 0
-2735 3071 -3014 3020 0
-2735 3071 3014 0
2735 -3071 -3014 3025 0
2735 -3071 3014 0
-2911 3072 -3014 -3022 3029 0
-2911 3072 -3014 3022 0
-2911 3072 3014 0
2911 -3072 -3014 -3022 3036 0
2911 -3072 -3014 3022 0
2911 -3072 3014 0
-2913 3073 -3014 -3023 3027 0
-2913 3073 -3014 3023 0
-2913 3073 3014 0
2913 -3073 -3014 -3023 3034 0
2913 -3073 -3014 3023 0
2913 -3073 3014 0
-2914 3074 -3014 -3021 3026 0
-2914 3074 -3014 3021 0
-2914 3074 3014 0
2914 -3074 -3014 -3021 3033 0
2914 -3074 -3014 3021 0
2914 -3074 3014 0
-2915 3075 -3014 -3024 3027 0
-2915 3075 -3014 3024 0
-2915 3075 3014 0
2915 -3075 -3014 -3024 3034 0
2915 -3075 -3014 3024 0
2915 -3075 3014 0
-2916 3076 -3014 3038 0
-2916 3076 3014 0
2916 -3076 -3014 3023 0
2916 -3076 3014 0
-2917 3077 -3014 -3023 3029 0
-2917 3077 -3014 3023 0
-2917 3077 3014 0
2917 -3077 -3014 -3023 3036 0
2917 -3077 -3014 3023 0
2917 -3077 3014 0
-2742 3078 -3014 3024 0
-2742 3078 3014 0
2742 -3078 -3014 3028 0
2742 -3078 3014 0
-2918 3079 -3014 -3024 3029 0
-2918 3079 -3014 3024 0
-2918 3079 3014 0
2918 -3079 -3014 -3024 3036 0
2918 -3079 -3014 3024 0
2918 -3079 3014 0
-2919 3080 -3014 -3024 3026 0
-2919 3080 -3014 3024 0
-2919 3080 3014 0
2919 -3080 -3014 -3024 3033 0
2919 -3080 -3014 3024 0
2919 -3080 3014 0
-2920 3081 -3014 -3020 3030 0
-2920 3081 -3014 3020 0
-2920 3081 3014 0
2920 -3081 -3014 -3020 3037 0
2920 -3081 -3014 3020 0
2920 -3081 3014 0
-2746 3082 0
2746 -3082 -3014 3026 0
2746 -3082 3014 0
-2922 3083 -3014 -3020 3031 0
-2922 3083 -3014 3020 0
-2922 3083 3014 0
2922 -3083 -3014 -3020 3039 0
2922 -3083 -3014 3020 0
2922 -3083 3014 0
-2923 3084 -3014 -3021 3027 0
-2923 3084 -3014 3021 0
-2923 3084 3014 0
2923 -3084 -3014 -3021 3034 0
2923 -3084 -3014 3021 0
2923 -3084 3014 0
-2924 3085 -3014 -3020 3027 0
-2924 3085 -3014 3020 0
-2924 3085 3014 0
2924 -3085 -3014 -3020 3034 0
2924 -3085 -3014 3020 0
2924 -3085 3014 0
-3041 2900 0
-3041 3062 0
-3042 3096 3097 3098 3099 3100 0
-3096 -3097 0
-3096 -3098 0
-3096 -3099 0
-3096 -3100 0
-3097 -3098 0
-3097 -3099 0
-3097 -3100 0
-3098 -3099 0
-3098 -3100 0
-3099 -3100 0
-3042 3101 3102 3103 3104 3105 3106 3107 3108 0
-3101 -3102 0
-3101 -3103 0
-3101 -3104 0
-3101 -3105 0
-3101 -3106 0
-3101 -3107 0
-3101 -3108 0
-3102 -3103 0
-3102 -3104 0
-3102 -3105 0
-3102 -3106 0
-3102 -3107 0
-3102 -3108 0
-3103 -3104 0
-3103 -3105 0
-3103 -3106 0
-3103 -3107 0
-3103 -3108 0
-3104 -3105 0
-3104 -3106 0
-3104 -3107 0
-3104 -3108 0
-3105 -3106 0
-3105 -3107 0
-3105 -3108 0
-3106 -3107 0
-3106 -3108 0
-3107 -3108 0
-3042 3093 0
-3042 3090 0
-3043 3101 3102 3103 3104 3105 3106 3107 3108 0
-3101 -3102 0
-3101 -3103 0
-3101 -3104 0
-3101 -3105 0
-3101 -3106 0
-3101 -3107 0
-3101 -3108 0
-3102 -3103 0
-3102 -3104 0
-3102 -3105 0
-3102 -3106 0
-3102 -3107 0
-3102 -3108 0
-3103 -3104 0
-3103 -3105 0
-3103 -3106 0
-3103 -3107 0
-3103 -3108 0
-3104 -3105 0
-3104 -3106 0
-3104 -3107 0
-3104 -3108 0
-3105 -3106 0
-3105 -3107 0
-3105 -3108 0
-3106 -3107 0
-3106 -3108 0
-3107 -3108 0
-3043 3096 3097 3098 3099 3100 0
-3096 -3097 0
-3096 -3098 0
-3096 -3099 0
-3096 -3100 0
-3097 -3098 0
-3097 -3099 0
-3097 -3100 0
-3098 -3099 0
-3098 -3100 0
-3099 -3100 0
-3043 3086 0
-3043 3091 0
-3040 -3041 0
-3040 -3042 0
-3040 -3043 0
-3041 -3042 0
-3041 -3043 0
-3042 -3043 0
-3101 -3086 3071 0
-3106 -3086 3056 0
-3102 -3086 3082 0
-3107 -3086 3058 0
-3105 -3086 3062 0
-3104 -3086 3078 0
-3103 -3086 3069 0
-3108 -3086 3053 0
-3023 -3025 3087 -3060 0
-3023 -3030 3087 -3067 0
-3023 -3026 3087 -3047 0
-3021 -3029 3087 -3048 0
-3023 -3031 3087 -3049 0
-3020 -3026 3087 -3050 0
-3022 -3026 3087 -3063 0
-3024 -3029 3087 -3079 0
-3022 -3031 3087 -3052 0
-3023 -3028 3087 -3054 0
-3022 -3029 3087 -3072 0
-3020 -3029 3087 -3064 0
-3024 -3030 3087 -3055 0
-3024 -3026 3087 -3080 0
-3020 -3030 3087 -3081 0
-3023 -3027 3087 -3073 0
-3021 -3026 3087 -3074 0
-3024 -3025 3087 -3057 0
-3024 -3027 3087 -3075 0
-3021 -3031 3087 -3066 0
-3024 -3031 3087 -3059 0
-3023 -3029 3087 -3077 0
-3020 -3031 3087 -3083 0
-3021 -3027 3087 -3084 0
-3020 -3027 3087 -3085 0
-3025 -3088 3071 0
-3030 -3088 3056 0
-3026 -3088 3082 0
-3029 -3088 3062 0
-3028 -3088 3078 0
-3027 -3088 3069 0
-3031 -3088 3053 0
-3036 3089 -3070 0
-3035 3089 -3045 0
-3037 3089 -3046 0
-3033 3089 -3065 0
-3032 3089 -3068 0
-3034 3089 -3061 0
-3038 3089 -3076 0
-3039 3089 -3051 0
-3096 -3090 3071 0
-3099 -3090 3058 0
-3097 -3090 3056 0
-3100 -3090 3078 0
-3098 -3090 3069 0
-3096 -3091 2921 0
-3099 -3091 2894 0
-3098 -3091 2888 0
-3097 -3091 2912 0
-3100 -3091 2896 0
-3020 -3092 3068 0
-3024 -3092 3045 0
-3021 -3092 3046 0
-3022 -3092 3061 0
-3023 -3092 3076 0
-3102 -3093 2900 0
-3107 -3093 2894 0
-3108 -3093 2908 0
-3103 -3093 2888 0
-3106 -3093 2912 0
-3104 -3093 2896 0
-3105 -3093 2905 0
-3101 -3093 2921 0
-3023 -3032 -3094 3060 0
-3023 -3037 -3094 3067 0
-3023 -3033 -3094 3047 0
-3021 -3036 -3094 3048 0
-3023 -3039 -3094 3049 0
-3020 -3033 -3094 3050 0
-3022 -3033 -3094 3063 0
-3024 -3036 -3094 3079 0
-3022 -3039 -3094 3052 0
-3023 -3035 -3094 3054 0
-3022 -3036 -3094 3072 0
-3020 -3036 -3094 3064 0
-3024 -3037 -3094 3055 0
-3024 -3033 -3094 3080 0
-3020 -3037 -3094 3081 0
-3023 -3034 -3094 3073 0
-3021 -3033 -3094 3074 0
-3024 -3032 -3094 3057 0
-3024 -3034 -3094 3075 0
-3021 -3039 -3094 3066 0
-3024 -3039 -3094 3059 0
-3023 -3036 -3094 3077 0
-3020 -3039 -3094 3083 0
-3021 -3034 -3094 3084 0
-3020 -3034 -3094 3085 0
-3020 3095 -3071 0
-3023 3095 -3058 0
-3021 3095 -3056 0
-3024 3095 -3078 0
-3022 3095 -3069 0
-3014 3094 0
-3109 3020 -3025 0
-3109 -3020 3025 0
-3109 3021 -3030 0
-3109 -3021 3030 0
-3109 3022 -3027 0
-3109 -3022 3027 0
-3109 3024 -3028 0
-3109 -3024 3028 0
-3020 -3025 3109 0
-3021 -3030 3109 0
-3022 -3027 3109 0
-3024 -3028 3109 0
-3023 -3109 0
-3029 -3109 0
-3026 -3109 0
-3031 -3109 0
-3014 -3095 3109 0
-3014 3092 0
-3110 3025 -3032 0
-3110 -3025 3032 0
-3110 3026 -3033 0
-3110 -3026 3033 0
-3110 3027 -3034 0
-3110 -3027 3034 0
-3110 3028 -3035 0
-3110 -3028 3035 0
-3110 3029 -3036 0
-3110 -3029 3036 0
-3110 3030 -3037 0
-3110 -3030 3037 0
-3110 3031 -3039 0
-3110 -3031 3039 0
-3025 -3032 3110 0
-3026 -3033 3110 0
-3027 -3034 3110 0
-3028 -3035 3110 0
-3029 -3036 3110 0
-3030 -3037 3110 0
-3031 -3039 3110 0
-3038 -3110 0
-3014 -3087 3110 0
-3111 3032 -3020 0
-3111 -3032 3020 0
-3111 3037 -3021 0
-3111 -3037 3021 0
-3111 3034 -3022 0
-3111 -3034 3022 0
-3111 3038 -3023 0
-3111 -3038 3023 0
-3111 3035 -3024 0
-3111 -3035 3024 0
-3032 -3020 3111 0
-3037 -3021 3111 0
-3034 -3022 3111 0
-3038 -3023 3111 0
-3035 -3024 3111 0
-3036 -3111 0
-3033 -3111 0
-3039 -3111 0
-3112 3032 -3025 0
-3112 -3032 3025 0
-3112 3033 -3026 0
-3112 -3033 3026 0
-3112 3034 -3027 0
-3112 -3034 3027 0
-3112 3035 -3028 0
-3112 -3035 3028 0
-3112 3036 -3029 0
-3112 -3036 3029 0
-3112 3037 -3030 0
-3112 -3037 3030 0
-3112 3039 -3031 0
-3112 -3039 3031 0
-3032 -3025 3112 0
-3033 -3026 3112 0
-3034 -3027 3112 0
-3035 -3028 3112 0
-3036 -3029 3112 0
-3037 -3030 3112 0
-3039 -3031 3112 0
-3038 -3112 0
-3014 -3089 3111 0
-3014 3088 0
-3042 -3099 -3107 0
-3042 -3100 -3107 0
-3042 -3100 -3104 0
-3042 -3098 -3107 0
-3042 -3098 -3104 0
-3042 -3098 -3106 0
-3042 -3098 -3103 0
-3042 -3098 -3101 0
-3042 -3096 -3107 0
-3042 -3096 -3104 0
-3042 -3096 -3101 0
-3042 -3097 -3107 0
-3042 -3097 -3104 0
-3042 -3097 -3106 0
-3042 -3097 -3101 0
-3043 -3099 -3107 0
-3043 -3100 -3107 0
-3043 -3100 -3104 0
-3043 -3098 -3107 0
-3043 -3098 -3104 0
-3043 -3098 -3106 0
-3043 -3098 -3103 0
-3043 -3098 -3101 0
-3043 -3096 -3107 0
-3043 -3096 -3104 0
-3043 -3096 -3101 0
-3043 -3097 -3107 0
-3043 -3097 -3104 0
-3043 -3097 -3106 0
-3043 -3097 -3101 0
-2882 3041 3042 3043 0
-2881 3040 0
-3041 2882 0
-3042 2882 0
-3043 2882 0
-3040 2881 0
-3045 151 -3044 0
3045 -151 -3044 0
-3046 152 -3044 0
3046 -152 -3044 0
-3047 154 -3044 0
3047 -154 -3044 0
-3048 155 -3044 0
3048 -155 -3044 0
-2888 385 -3044 0
2888 -385 -3044 0
-3049 156 -3044 0
3049 -156 -3044 0
-3050 158 -3044 0
3050 -158 -3044 0
-3051 159 -3044 0
3051 -159 -3044 0
-3052 160 -3044 0
3052 -160 -3044 0
-3053 602 -3044 0
3053 -602 -3044 0
-3054 10 -3044 0
3054 -10 -3044 0
-2894 162 -3044 0
2894 -162 -3044 0
-3055 163 -3044 0
3055 -163 -3044 0
-3056 270 -3044 0
3056 -270 -3044 0
-2896 386 -3044 0
2896 -386 -3044 0
-3057 11 -3044 0
3057 -11 -3044 0
-3058 271 -3044 0
3058 -271 -3044 0
-3059 167 -3044 0
3059 -167 -3044 0
-3060 170 -3044 0
3060 -170 -3044 0
-2900 171 -3044 0
2900 -171 -3044 0
-3061 172 -3044 0
3061 -172 -3044 0
-3062 273 -3044 0
3062 -273 -3044 0
-3063 12 -3044 0
3063 -12 -3044 0
-3064 174 -3044 0
3064 -174 -3044 0
-3065 274 -3044 0
3065 -274 -3044 0
-2905 387 -3044 0
2905 -387 -3044 0
-3066 176 -3044 0
3066 -176 -3044 0
-3067 153 -3044 0
3067 -153 -3044 0
-2908 388 -3044 0
2908 -388 -3044 0
-3068 157 -3044 0
3068 -157 -3044 0
-3069 267 -3044 0
3069 -267 -3044 0
-3070 268 -3044 0
3070 -268 -3044 0
-3071 269 -3044 0
3071 -269 -3044 0
-3072 161 -3044 0
3072 -161 -3044 0
-2912 389 -3044 0
2912 -389 -3044 0
-3073 164 -3044 0
3073 -164 -3044 0
-3074 165 -3044 0
3074 -165 -3044 0
-3075 166 -3044 0
3075 -166 -3044 0
-3076 168 -3044 0
3076 -168 -3044 0
-3077 169 -3044 0
3077 -169 -3044 0
-3078 272 -3044 0
3078 -272 -3044 0
-3079 173 -3044 0
3079 -173 -3044 0
-3080 175 -3044 0
3080 -175 -3044 0
-3081 13 -3044 0
3081 -13 -3044 0
-3082 603 -3044 0
3082 -603 -3044 0
-2921 390 -3044 0
2921 -390 -3044 0
-3083 177 -3044 0
3083 -177 -3044 0
-3084 14 -3044 0
3084 -14 -3044 0
-3085 178 -3044 0
3085 -178 -3044 0
-2937 3113 0
-3113 2937 0
a 3044 0
